rcpsp/heur_output_or_constraints/Log=2/heurj90.txt
encoding rcpsp/j90.sm/j9035_5.sm nv: 513252 nc: 1209169 enctime: 21.83
encoding rcpsp/j90.sm/j9035_5.sm nv: 77274 nc: 178634 enctime: 0.89
c File: j9035_5.smnaiveor2.wcnf
c optimal
c final solution cost: 77
c CPU time: 5.055811
s OPTIMUM FOUND

c File: j9035_5.smor2.wcnf
c optimal
c final solution cost: 77
c CPU time: 0.227536
s OPTIMUM FOUND


rcpsp/heur_output_or_constraints/Log=2/heurj90.txt
encoding rcpsp/j90.sm/j9035_6.sm nv: 501228 nc: 1132766 enctime: 16.37
encoding rcpsp/j90.sm/j9035_6.sm nv: 63180 nc: 139774 enctime: 0.66
c File: j9035_6.smnaiveor2.wcnf
c optimal
c final solution cost: 52
c CPU time: 4.562906
s OPTIMUM FOUND

c File: j9035_6.smor2.wcnf
c optimal
c final solution cost: 52
c CPU time: 0.194161
s OPTIMUM FOUND


rcpsp/heur_output_or_constraints/Log=2/heurj90.txt
encoding rcpsp/j90.sm/j9035_7.sm nv: 434250 nc: 977923 enctime: 13.96
encoding rcpsp/j90.sm/j9035_7.sm nv: 76235 nc: 169143 enctime: 1.73
c File: j9035_7.smnaiveor2.wcnf
c optimal
c final solution cost: 62
c CPU time: 3.921745
s OPTIMUM FOUND

c File: j9035_7.smor2.wcnf
c optimal
c final solution cost: 62
c CPU time: 0.285256
s OPTIMUM FOUND


rcpsp/heur_output_or_constraints/Log=2/heurj90.txt
encoding rcpsp/j90.sm/j9035_8.sm nv: 493136 nc: 1112420 enctime: 18.80
encoding rcpsp/j90.sm/j9035_8.sm nv: 64232 nc: 142004 enctime: 1.14
c File: j9035_8.smnaiveor2.wcnf
c optimal
c final solution cost: 59
c CPU time: 4.833184
s OPTIMUM FOUND

c File: j9035_8.smor2.wcnf
c optimal
c final solution cost: 59
c CPU time: 0.217748
s OPTIMUM FOUND


rcpsp/heur_output_or_constraints/Log=2/heurj90.txt
encoding rcpsp/j90.sm/j9035_9.sm nv: 476844 nc: 1072471 enctime: 17.25
encoding rcpsp/j90.sm/j9035_9.sm nv: 53318 nc: 116801 enctime: 1.29
c File: j9035_9.smnaiveor2.wcnf
c optimal
c final solution cost: 48
c CPU time: 3.979692
s OPTIMUM FOUND

c File: j9035_9.smor2.wcnf
c optimal
c final solution cost: 48
c CPU time: 0.176198
s OPTIMUM FOUND


rcpsp/heur_output_or_constraints/Log=2/heurj90.txt
encoding rcpsp/j90.sm/j903_5.sm nv: 687659 nc: 1507078 enctime: 21.61
encoding rcpsp/j90.sm/j903_5.sm nv: 79709 nc: 171478 enctime: 0.84
c File: j903_5.smnaiveor2.wcnf
c optimal
c final solution cost: 53
c CPU time: 4.326100
s OPTIMUM FOUND

c File: j903_5.smor2.wcnf
c optimal
c final solution cost: 53
c CPU time: 0.340959
s OPTIMUM FOUND


rcpsp/heur_output_or_constraints/Log=2/heurj90.txt
encoding rcpsp/j90.sm/j9036_10.sm nv: 594868 nc: 1334797 enctime: 21.34
encoding rcpsp/j90.sm/j9036_10.sm nv: 66747 nc: 146412 enctime: 1.19
c File: j9036_10.smnaiveor2.wcnf
c optimal
c final solution cost: 56
c CPU time: 5.095695
s OPTIMUM FOUND

c File: j9036_10.smor2.wcnf
c optimal
c final solution cost: 56
c CPU time: 0.184012
s OPTIMUM FOUND


rcpsp/heur_output_or_constraints/Log=2/heurj90.txt
encoding rcpsp/j90.sm/j9036_1.sm nv: 493188 nc: 1083767 enctime: 16.87
encoding rcpsp/j90.sm/j9036_1.sm nv: 75442 nc: 163316 enctime: 1.58
c File: j9036_1.smnaiveor2.wcnf
c optimal
c final solution cost: 63
c CPU time: 5.091565
s OPTIMUM FOUND

c File: j9036_1.smor2.wcnf
c optimal
c final solution cost: 63
c CPU time: 0.258953
s OPTIMUM FOUND


rcpsp/heur_output_or_constraints/Log=2/heurj90.txt
encoding rcpsp/j90.sm/j9036_2.sm nv: 529830 nc: 1225274 enctime: 20.10
encoding rcpsp/j90.sm/j9036_2.sm nv: 77140 nc: 174944 enctime: 0.87
c File: j9036_2.smnaiveor2.wcnf
c optimal
c final solution cost: 75
c CPU time: 5.054508
s OPTIMUM FOUND

c File: j9036_2.smor2.wcnf
c optimal
c final solution cost: 75
c CPU time: 0.236694
s OPTIMUM FOUND


rcpsp/heur_output_or_constraints/Log=2/heurj90.txt
encoding rcpsp/j90.sm/j9036_3.sm nv: 656370 nc: 1456314 enctime: 22.91
encoding rcpsp/j90.sm/j9036_3.sm nv: 78507 nc: 170827 enctime: 1.88
c File: j9036_3.smnaiveor2.wcnf
c optimal
c final solution cost: 58
c CPU time: 4.881837
s OPTIMUM FOUND

c File: j9036_3.smor2.wcnf
c optimal
c final solution cost: 58
c CPU time: 0.205184
s OPTIMUM FOUND


rcpsp/heur_output_or_constraints/Log=2/heurj90.txt
encoding rcpsp/j90.sm/j9036_4.sm nv: 548948 nc: 1208726 enctime: 18.63
encoding rcpsp/j90.sm/j9036_4.sm nv: 57722 nc: 124109 enctime: 1.04
c File: j9036_4.smnaiveor2.wcnf
c optimal
c final solution cost: 46
c CPU time: 3.951044
s OPTIMUM FOUND

c File: j9036_4.smor2.wcnf
c optimal
c final solution cost: 46
c CPU time: 0.181114
s OPTIMUM FOUND


rcpsp/heur_output_or_constraints/Log=2/heurj90.txt
encoding rcpsp/j90.sm/j9036_5.sm nv: 590336 nc: 1327436 enctime: 21.74
encoding rcpsp/j90.sm/j9036_5.sm nv: 79557 nc: 175636 enctime: 1.86
c File: j9036_5.smnaiveor2.wcnf
c optimal
c final solution cost: 68
c CPU time: 4.787606
s OPTIMUM FOUND

c File: j9036_5.smor2.wcnf
c optimal
c final solution cost: 68
c CPU time: 0.203970
s OPTIMUM FOUND


rcpsp/heur_output_or_constraints/Log=2/heurj90.txt
encoding rcpsp/j90.sm/j9036_6.sm nv: 623570 nc: 1367229 enctime: 21.53
encoding rcpsp/j90.sm/j9036_6.sm nv: 92710 nc: 200173 enctime: 0.99
c File: j9036_6.smnaiveor2.wcnf
c optimal
c final solution cost: 72
c CPU time: 3.876826
s OPTIMUM FOUND

c File: j9036_6.smor2.wcnf
c optimal
c final solution cost: 72
c CPU time: 0.226653
s OPTIMUM FOUND


rcpsp/heur_output_or_constraints/Log=2/heurj90.txt
encoding rcpsp/j90.sm/j9036_7.sm nv: 571206 nc: 1282089 enctime: 20.99
encoding rcpsp/j90.sm/j9036_7.sm nv: 65379 nc: 143427 enctime: 1.67
c File: j9036_7.smnaiveor2.wcnf
c optimal
c final solution cost: 55
c CPU time: 4.179841
s OPTIMUM FOUND

c File: j9036_7.smor2.wcnf
c optimal
c final solution cost: 55
c CPU time: 0.185510
s OPTIMUM FOUND


rcpsp/heur_output_or_constraints/Log=2/heurj90.txt
encoding rcpsp/j90.sm/j9036_8.sm nv: 606528 nc: 1329048 enctime: 19.45
encoding rcpsp/j90.sm/j9036_8.sm nv: 77760 nc: 167472 enctime: 1.26
c File: j9036_8.smnaiveor2.wcnf
c optimal
c final solution cost: 56
c CPU time: 4.857110
s OPTIMUM FOUND

c File: j9036_8.smor2.wcnf
c optimal
c final solution cost: 56
c CPU time: 0.246181
s OPTIMUM FOUND


rcpsp/heur_output_or_constraints/Log=2/heurj90.txt
encoding rcpsp/j90.sm/j9036_9.sm nv: 633920 nc: 1453837 enctime: 28.66
encoding rcpsp/j90.sm/j9036_9.sm nv: 80372 nc: 180481 enctime: 0.89
c File: j9036_9.smnaiveor2.wcnf
c optimal
c final solution cost: 70
c CPU time: 5.216696
s OPTIMUM FOUND

c File: j9036_9.smor2.wcnf
c optimal
c final solution cost: 70
c CPU time: 0.218097
s OPTIMUM FOUND


rcpsp/heur_output_or_constraints/Log=2/heurj90.txt
encoding rcpsp/j90.sm/j903_6.sm nv: 502320 nc: 1107006 enctime: 14.58
encoding rcpsp/j90.sm/j903_6.sm nv: 56784 nc: 122502 enctime: 0.59
c File: j903_6.smnaiveor2.wcnf
c optimal
c final solution cost: 45
c CPU time: 3.342068
s OPTIMUM FOUND

c File: j903_6.smor2.wcnf
c optimal
c final solution cost: 45
c CPU time: 0.159279
s OPTIMUM FOUND


rcpsp/heur_output_or_constraints/Log=2/heurj90.txt
encoding rcpsp/j90.sm/j9037_10.sm nv: 902272 nc: 1983984 enctime: 30.89
encoding rcpsp/j90.sm/j9037_10.sm nv: 223872 nc: 489184 enctime: 3.21
c File: j9037_10.smnaiveor2.wcnf
c timeout
c final solution cost: 122
c CPU time: 64.777219
s UNKNOWN

c File: j9037_10.smor2.wcnf
c timeout
c final solution cost: 116
c CPU time: 60.561491
s UNKNOWN


rcpsp/heur_output_or_constraints/Log=2/heurj90.txt
encoding rcpsp/j90.sm/j9037_1.sm nv: 980720 nc: 2126487 enctime: 24.42
encoding rcpsp/j90.sm/j9037_1.sm nv: 218776 nc: 471299 enctime: 3.05
c File: j9037_1.smnaiveor2.wcnf
c timeout
c final solution cost: 100
c CPU time: 64.337956
s UNKNOWN

c File: j9037_1.smor2.wcnf
c timeout
c final solution cost: 101
c CPU time: 60.439878
s UNKNOWN


rcpsp/heur_output_or_constraints/Log=2/heurj90.txt
encoding rcpsp/j90.sm/j9037_2.sm nv: 890500 nc: 1929733 enctime: 27.59
encoding rcpsp/j90.sm/j9037_2.sm nv: 233311 nc: 502810 enctime: 3.39
c File: j9037_2.smnaiveor2.wcnf
c timeout
c final solution cost: 109
c CPU time: 64.414207
s UNKNOWN

c File: j9037_2.smor2.wcnf
c timeout
c final solution cost: 113
c CPU time: 60.607566
s UNKNOWN


rcpsp/heur_output_or_constraints/Log=2/heurj90.txt
encoding rcpsp/j90.sm/j9037_3.sm nv: 779475 nc: 1694172 enctime: 24.85
encoding rcpsp/j90.sm/j9037_3.sm nv: 228099 nc: 493308 enctime: 3.60
c File: j9037_3.smnaiveor2.wcnf
c timeout
c final solution cost: 122
c CPU time: 63.971078
s UNKNOWN

c File: j9037_3.smor2.wcnf
c timeout
c final solution cost: 117
c CPU time: 60.561460
s UNKNOWN


rcpsp/heur_output_or_constraints/Log=2/heurj90.txt
encoding rcpsp/j90.sm/j9037_4.sm nv: 845894 nc: 1857753 enctime: 22.60
encoding rcpsp/j90.sm/j9037_4.sm nv: 228620 nc: 499221 enctime: 3.94
c File: j9037_4.smnaiveor2.wcnf
c timeout
c final solution cost: 115
c CPU time: 64.052119
s UNKNOWN

c File: j9037_4.smor2.wcnf
c timeout
c final solution cost: 115
c CPU time: 60.527248
s UNKNOWN


rcpsp/heur_output_or_constraints/Log=2/heurj90.txt
encoding rcpsp/j90.sm/j9037_5.sm nv: 771210 nc: 1692725 enctime: 21.41
encoding rcpsp/j90.sm/j9037_5.sm nv: 233700 nc: 510410 enctime: 3.43
c File: j9037_5.smnaiveor2.wcnf
c timeout
c final solution cost: 118
c CPU time: 63.788500
s UNKNOWN

c File: j9037_5.smor2.wcnf
c timeout
c final solution cost: 119
c CPU time: 60.578659
s UNKNOWN


rcpsp/heur_output_or_constraints/Log=2/heurj90.txt
encoding rcpsp/j90.sm/j9037_6.sm nv: 952590 nc: 2108702 enctime: 29.71
encoding rcpsp/j90.sm/j9037_6.sm nv: 227130 nc: 499422 enctime: 3.72
c File: j9037_6.smnaiveor2.wcnf
c timeout
c final solution cost: 125
c CPU time: 64.937365
s UNKNOWN

c File: j9037_6.smor2.wcnf
c timeout
c final solution cost: 122
c CPU time: 60.538401
s UNKNOWN


rcpsp/heur_output_or_constraints/Log=2/heurj90.txt
encoding rcpsp/j90.sm/j9037_7.sm nv: 793638 nc: 1729088 enctime: 20.76
encoding rcpsp/j90.sm/j9037_7.sm nv: 218822 nc: 474208 enctime: 3.09
c File: j9037_7.smnaiveor2.wcnf
c timeout
c final solution cost: 117
c CPU time: 63.589809
s UNKNOWN

c File: j9037_7.smor2.wcnf
c timeout
c final solution cost: 113
c CPU time: 60.504438
s UNKNOWN


rcpsp/heur_output_or_constraints/Log=2/heurj90.txt
encoding rcpsp/j90.sm/j9037_8.sm nv: 893944 nc: 1957936 enctime: 29.16
encoding rcpsp/j90.sm/j9037_8.sm nv: 230310 nc: 501520 enctime: 3.32
c File: j9037_8.smnaiveor2.wcnf
c timeout
c final solution cost: 113
c CPU time: 64.467300
s UNKNOWN

c File: j9037_8.smor2.wcnf
c timeout
c final solution cost: 115
c CPU time: 60.577278
s UNKNOWN


rcpsp/heur_output_or_constraints/Log=2/heurj90.txt
encoding rcpsp/j90.sm/j9037_9.sm nv: 754929 nc: 1646923 enctime: 23.76
encoding rcpsp/j90.sm/j9037_9.sm nv: 218820 nc: 474892 enctime: 3.37
c File: j9037_9.smnaiveor2.wcnf
c timeout
c final solution cost: 117
c CPU time: 63.801343
s UNKNOWN

c File: j9037_9.smor2.wcnf
c timeout
c final solution cost: 117
c CPU time: 60.551022
s UNKNOWN


rcpsp/heur_output_or_constraints/Log=2/heurj90.txt
encoding rcpsp/j90.sm/j903_7.sm nv: 428230 nc: 958103 enctime: 13.03
encoding rcpsp/j90.sm/j903_7.sm nv: 59840 nc: 131097 enctime: 0.61
c File: j903_7.smnaiveor2.wcnf
c optimal
c final solution cost: 63
c CPU time: 2.738430
s OPTIMUM FOUND

c File: j903_7.smor2.wcnf
c optimal
c final solution cost: 63
c CPU time: 0.145751
s OPTIMUM FOUND


rcpsp/heur_output_or_constraints/Log=2/heurj90.txt
encoding rcpsp/j90.sm/j9038_10.sm nv: 1237021 nc: 2610119 enctime: 33.56
encoding rcpsp/j90.sm/j9038_10.sm nv: 205757 nc: 431111 enctime: 2.91
c File: j9038_10.smnaiveor2.wcnf
c timeout
c final solution cost: 72
c CPU time: 64.906857
s UNKNOWN

c File: j9038_10.smor2.wcnf
c timeout
c final solution cost: 72
c CPU time: 60.382931
s UNKNOWN


rcpsp/heur_output_or_constraints/Log=2/heurj90.txt
encoding rcpsp/j90.sm/j9038_1.sm nv: 1357056 nc: 2842801 enctime: 34.14
encoding rcpsp/j90.sm/j9038_1.sm nv: 210672 nc: 438160 enctime: 2.91
c File: j9038_1.smnaiveor2.wcnf
c timeout
c final solution cost: 71
c CPU time: 64.630493
s UNKNOWN

c File: j9038_1.smor2.wcnf
c timeout
c final solution cost: 69
c CPU time: 60.345344
s UNKNOWN


rcpsp/heur_output_or_constraints/Log=2/heurj90.txt
encoding rcpsp/j90.sm/j9038_2.sm nv: 1358970 nc: 2828194 enctime: 31.35
encoding rcpsp/j90.sm/j9038_2.sm nv: 194970 nc: 402994 enctime: 2.03
c File: j9038_2.smnaiveor2.wcnf
c timeout
c final solution cost: 60
c CPU time: 64.526339
s UNKNOWN

c File: j9038_2.smor2.wcnf
c timeout
c final solution cost: 59
c CPU time: 60.367860
s UNKNOWN


rcpsp/heur_output_or_constraints/Log=2/heurj90.txt
encoding rcpsp/j90.sm/j9038_3.sm nv: 1394540 nc: 2916409 enctime: 34.82
encoding rcpsp/j90.sm/j9038_3.sm nv: 253294 nc: 526850 enctime: 3.77
c File: j9038_3.smnaiveor2.wcnf
c optimal
c final solution cost: 79
c CPU time: 7.508235
s OPTIMUM FOUND

c File: j9038_3.smor2.wcnf
c optimal
c final solution cost: 79
c CPU time: 0.926691
s OPTIMUM FOUND


rcpsp/heur_output_or_constraints/Log=2/heurj90.txt
encoding rcpsp/j90.sm/j9038_4.sm nv: 1354197 nc: 2847443 enctime: 33.59
encoding rcpsp/j90.sm/j9038_4.sm nv: 232377 nc: 485363 enctime: 4.22
c File: j9038_4.smnaiveor2.wcnf
c optimal
c final solution cost: 76
c CPU time: 7.602679
s OPTIMUM FOUND

c File: j9038_4.smor2.wcnf
c optimal
c final solution cost: 76
c CPU time: 0.555950
s OPTIMUM FOUND


rcpsp/heur_output_or_constraints/Log=2/heurj90.txt
encoding rcpsp/j90.sm/j9038_5.sm nv: 1308918 nc: 2765062 enctime: 31.04
encoding rcpsp/j90.sm/j9038_5.sm nv: 204282 nc: 428332 enctime: 2.78
c File: j9038_5.smnaiveor2.wcnf
c timeout
c final solution cost: 69
c CPU time: 64.886971
s UNKNOWN

c File: j9038_5.smor2.wcnf
c timeout
c final solution cost: 67
c CPU time: 60.403695
s UNKNOWN


rcpsp/heur_output_or_constraints/Log=2/heurj90.txt
encoding rcpsp/j90.sm/j9038_6.sm nv: 1362843 nc: 2847767 enctime: 30.63
encoding rcpsp/j90.sm/j9038_6.sm nv: 245256 nc: 509536 enctime: 4.15
c File: j9038_6.smnaiveor2.wcnf
c optimal
c final solution cost: 71
c CPU time: 8.015354
s OPTIMUM FOUND

c File: j9038_6.smor2.wcnf
c optimal
c final solution cost: 71
c CPU time: 0.882412
s OPTIMUM FOUND


rcpsp/heur_output_or_constraints/Log=2/heurj90.txt
encoding rcpsp/j90.sm/j9038_7.sm nv: 1380954 nc: 2890163 enctime: 31.50
encoding rcpsp/j90.sm/j9038_7.sm nv: 230159 nc: 478598 enctime: 3.43
c File: j9038_7.smnaiveor2.wcnf
c optimal
c final solution cost: 75
c CPU time: 8.479778
s OPTIMUM FOUND

c File: j9038_7.smor2.wcnf
c optimal
c final solution cost: 75
c CPU time: 0.844818
s OPTIMUM FOUND


rcpsp/heur_output_or_constraints/Log=2/heurj90.txt
encoding rcpsp/j90.sm/j9038_8.sm nv: 1574720 nc: 3305472 enctime: 34.60
encoding rcpsp/j90.sm/j9038_8.sm nv: 263440 nc: 549569 enctime: 3.54
c File: j9038_8.smnaiveor2.wcnf
c timeout
c final solution cost: 70
c CPU time: 65.129814
s UNKNOWN

c File: j9038_8.smor2.wcnf
c timeout
c final solution cost: 70
c CPU time: 60.468407
s UNKNOWN


rcpsp/heur_output_or_constraints/Log=2/heurj90.txt
encoding rcpsp/j90.sm/j9038_9.sm nv: 1376331 nc: 2917632 enctime: 34.66
encoding rcpsp/j90.sm/j9038_9.sm nv: 238359 nc: 501828 enctime: 3.84
c File: j9038_9.smnaiveor2.wcnf
c timeout
c final solution cost: 77
c CPU time: 65.136523
s UNKNOWN

c File: j9038_9.smor2.wcnf
c timeout
c final solution cost: 77
c CPU time: 60.408678
s UNKNOWN


rcpsp/heur_output_or_constraints/Log=2/heurj90.txt
encoding rcpsp/j90.sm/j903_8.sm nv: 501486 nc: 1130446 enctime: 15.39
encoding rcpsp/j90.sm/j903_8.sm nv: 56392 nc: 124012 enctime: 0.98
c File: j903_8.smnaiveor2.wcnf
c optimal
c final solution cost: 48
c CPU time: 3.755037
s OPTIMUM FOUND

c File: j903_8.smor2.wcnf
c optimal
c final solution cost: 48
c CPU time: 0.179529
s OPTIMUM FOUND


rcpsp/heur_output_or_constraints/Log=2/heurj90.txt
encoding rcpsp/j90.sm/j9039_10.sm nv: 1652510 nc: 3437302 enctime: 36.66
encoding rcpsp/j90.sm/j9039_10.sm nv: 263630 nc: 545062 enctime: 3.73
c File: j9039_10.smnaiveor2.wcnf
c optimal
c final solution cost: 74
c CPU time: 8.270003
s OPTIMUM FOUND

c File: j9039_10.smor2.wcnf
c optimal
c final solution cost: 74
c CPU time: 0.935815
s OPTIMUM FOUND


